p edge 14 42
e 1 2
e 1 5
e 1 10
e 2 4
e 2 6
e 2 11
e 3 2
e 3 4
e 3 6
e 4 7
e 4 12
e 4 14
e 5 1
e 5 9
e 5 11
e 6 3
e 6 3
e 6 4
e 7 1
e 7 6
e 7 10
e 8 3
e 8 13
e 8 13
e 9 2
e 9 6
e 9 14
e 10 1
e 10 6
e 10 11
e 11 4
e 11 10
e 11 13
e 12 1
e 12 2
e 12 10
e 13 2
e 13 3
e 13 12
e 14 6
e 14 7
e 14 8
